MINIMIZE
	obj: 148.5 x_0_4 + 159.0 x_4_0 + 141.5 x_0_12 + 217.5 x_12_0 + 312.5 x_1_7 + 284.5 x_7_1 + 274.5 x_1_19 + 187.0 x_19_1 + 263.0 x_2_13 + 130.0 x_13_2 + 154.5 x_3_19 + 59.5 x_19_3 + 82.5 x_3_5 + 93.5 x_5_3 + 87.0 x_4_6 + 88.0 x_6_4 + 159.0 x_4_11 + 157.5 x_11_4 + 308.5 x_4_15 + 298.0 x_15_4 + 107.5 x_4_18 + 5.5 x_18_4 + 163.0 x_5_15 + 144.0 x_15_5 + 175.0 x_6_7 + 82.0 x_7_6 + 145.5 x_6_17 + 26.0 x_17_6 + 172.5 x_7_13 + 48.5 x_13_7 + 136.0 x_7_18 + 119.0 x_18_7 + 198.0 x_8_15 + 272.0 x_15_8 + 6.5 x_9_10 + 55.5 x_10_9 + 106.5 x_9_14 + 127.5 x_14_9 + 242.0 x_9_13 + 158.5 x_13_9 + 194.0 x_9_12 + 169.5 x_12_9 + 59.0 x_10_19 + 3.0 x_19_10 + 131.0 x_10_17 + 174.5 x_17_10 + 96.5 x_12_14 + 169.5 x_14_12 + 57.5 x_12_15 + 195.0 x_15_12 + 118.5 x_13_17 + 185.5 x_17_13 + 199.5 x_14_17 + 130.0 x_17_14 + 97.0 x_14_19 + 37.0 x_19_14 + 158.0 x_14_16 + 137.5 x_16_14 + 227.5 x_15_19 + 195.0 x_19_15 + 42.0 x_16_16 
SUBJECT TO
	c_source_11:  - x_4_11 + x_11_4 <= 455
	c_source_18:  - x_4_18 + x_18_4 - x_7_18 + x_18_7 <= 1842
	c_source_6:  - x_4_6 + x_6_4 + x_6_7 - x_7_6 + x_6_17 - x_17_6 <= 449
	c_source_4:  - x_0_4 + x_4_0 + x_4_6 - x_6_4 + x_4_11 - x_11_4 + x_4_15 - x_15_4 + x_4_18 - x_18_4 <= 837
	c_dest_3:  - x_3_19 + x_19_3 - x_3_5 + x_5_3 = 923
	c_dest_5:  + x_3_5 - x_5_3 - x_5_15 + x_15_5 = 410
	c_dest_8:  - x_8_15 + x_15_8 = 192
	c_dest_19:  + x_1_19 - x_19_1 + x_3_19 - x_19_3 + x_10_19 - x_19_10 + x_14_19 - x_19_14 + x_15_19 - x_19_15 = 743
	c_dest_10:  + x_9_10 - x_10_9 - x_10_19 + x_19_10 - x_10_17 + x_17_10 = 1313
	c_inter_0:  - x_0_4 + x_4_0 - x_0_12 + x_12_0 = 0
	c_inter_1:  - x_1_7 + x_7_1 - x_1_19 + x_19_1 = 0
	c_inter_2:  - x_2_13 + x_13_2 = 0
	c_inter_7:  + x_1_7 - x_7_1 + x_6_7 - x_7_6 - x_7_13 + x_13_7 - x_7_18 + x_18_7 = 0
	c_inter_9:  - x_9_10 + x_10_9 - x_9_14 + x_14_9 - x_9_13 + x_13_9 - x_9_12 + x_12_9 = 0
	c_inter_12:  + x_0_12 - x_12_0 + x_9_12 - x_12_9 - x_12_14 + x_14_12 - x_12_15 + x_15_12 = 0
	c_inter_13:  + x_2_13 - x_13_2 + x_7_13 - x_13_7 + x_9_13 - x_13_9 - x_13_17 + x_17_13 = 0
	c_inter_14:  + x_9_14 - x_14_9 + x_12_14 - x_14_12 - x_14_17 + x_17_14 - x_14_19 + x_19_14 - x_14_16 + x_16_14 = 0
	c_inter_15:  + x_4_15 - x_15_4 + x_5_15 - x_15_5 + x_8_15 - x_15_8 + x_12_15 - x_15_12 - x_15_19 + x_19_15 = 0
	c_inter_16:  + x_14_16 - x_16_14 - x_16_16 = 0
	c_inter_17:  + x_6_17 - x_17_6 + x_10_17 - x_17_10 + x_13_17 - x_17_13 + x_14_17 - x_17_14 = 0
BINARY
END
